% Generated FlatZinc statistics:
%%%mzn-stat: paths=0
%%%mzn-stat: flatBoolVars=1339
%%%mzn-stat: flatIntVars=123
%%%mzn-stat: flatBoolConstraints=427
%%%mzn-stat: flatIntConstraints=1439
%%%mzn-stat: evaluatedReifiedConstraints=58
%%%mzn-stat: evaluatedHalfReifiedConstraints=1281
%%%mzn-stat: method="minimize"
%%%mzn-stat: flatTime=0.10792
%%%mzn-stat-end
end = 62
carga_por_operario = [59, 59]
desbalance = 0
Job 1:  15(op:1)  43(op:1)  47(op:2)  55(op:2)  60(op:1)
Job 2:  30(op:1)  36(op:1)  40(op:1)  41(op:1)  45(op:1)
Job 3:  11(op:1)  14(op:2)  16(op:1)  18(op:1)  23(op:1)
Job 4:   0(op:2)   3(op:2)   7(op:2)  30(op:2)  38(op:2)
Job 5:   3(op:1)  11(op:2)  42(op:1)  43(op:2)  52(op:1)
Job 6:  14(op:1)  16(op:2)  18(op:2)  23(op:2)  58(op:1)
----------
%%%mzn-stat: initTime=0.00660427
%%%mzn-stat: solveTime=59.8922
%%%mzn-stat: solutions=10
%%%mzn-stat: variables=1464
%%%mzn-stat: propagators=1866
%%%mzn-stat: propagations=486862749
%%%mzn-stat: nodes=2868894
%%%mzn-stat: failures=1434410
%%%mzn-stat: restarts=0
%%%mzn-stat: peakDepth=52
%%%mzn-stat-end
%%%mzn-stat: nSolutions=1
%%%mzn-stat-end
